MARKOV
143
4 4 4 4 2 2 2 4 4 2 2 2 2 2 2 2 4 4 2 4 2 2 2 2 2 2 2 2 2 2 2 2 2 2 4 2 2 2 2 2 2 2 2 2 2 2 2 2 4 4 4 4 4 2 4 4 4 2 2 2 2 2 2 2 4 4 2 4 4 4 4 2 2 4 4 4 4 2 2 2 4 4 2 2 2 4 2 2 2 2 2 2 2 2 4 2 4 2 4 2 4 4 4 2 2 2 4 4 4 4 2 2 4 4 4 2 2 4 4 4 4 2 2 2 2 2 2 2 2 2 4 4 4 4 4 4 4 4 4 4 2 2 2
635
2 105 101
3 136 122 135
2 81 78
2 104 96
2 122 121
2 2 0
2 32 30
2 108 125
2 122 101
2 95 94
3 138 122 134
2 80 79
2 139 141
2 86 83
3 70 60 73
2 51 49
2 105 102
2 133 131
2 116 115
2 107 127
3 71 82 73
2 35 36
2 74 76
2 108 113
3 44 64 55
3 46 54 64
2 118 116
2 99 125
2 111 106
2 15 31
2 48 49
2 123 100
2 29 28
2 112 113
2 100 98
2 122 112
2 16 18
2 20 32
2 136 137
2 111 112
2 72 75
3 46 56 64
3 53 70 61
2 26 22
2 84 85
2 107 125
2 31 30
2 116 112
2 69 64
2 64 67
2 57 60
2 35 34
2 133 135
2 69 67
2 115 113
2 14 12
2 65 69
2 89 91
2 89 88
2 124 127
3 63 71 50
2 82 85
2 59 69
3 70 60 72
2 32 33
2 23 21
2 96 94
2 65 64
2 110 106
3 53 63 70
2 93 92
3 120 102 134
2 84 83
2 43 45
2 72 74
2 99 94
2 65 66
2 103 98
3 136 122 134
2 59 67
2 128 124
2 53 50
2 4 8
2 109 107
2 4 20
2 15 30
2 124 125
2 30 33
3 84 71 73
2 52 51
2 59 39
2 26 25
2 11 9
2 20 18
3 71 83 75
2 103 100
2 59 40
2 105 103
2 122 113
2 77 73
2 65 68
2 95 98
3 71 83 73
2 19 16
2 31 33
2 13 12
2 111 113
2 91 92
2 32 35
3 138 122 135
2 59 58
2 38 39
2 99 117
2 109 108
3 63 71 51
3 118 135 100
2 116 113
2 18 31
2 14 11
3 64 45 55
2 112 109
2 126 129
2 139 140
2 104 101
3 120 100 134
2 18 32
3 71 51 61
2 54 49
2 93 101
2 56 58
2 95 100
2 17 20
2 30 35
2 10 12
2 132 135
3 71 85 76
2 53 51
2 84 87
3 47 64 55
2 128 127
3 47 69 55
2 81 83
2 97 94
2 104 97
2 93 102
2 4 3
2 84 86
2 84 82
2 51 50
3 71 49 61
2 126 127
2 23 24
2 103 99
3 84 70 75
2 56 54
2 57 69
2 7 5
2 36 34
2 103 94
3 119 100 134
2 50 49
2 91 101
2 129 127
2 57 64
2 13 11
2 60 41
2 57 67
2 18 30
2 99 98
2 43 44
2 59 56
2 91 102
2 89 87
2 116 117
2 32 34
2 119 123
2 63 61
2 132 133
2 89 90
2 89 86
3 84 70 74
2 91 88
2 111 109
2 32 27
3 123 135 137
3 118 102 134
2 62 61
2 102 100
2 19 18
2 129 125
2 120 119
2 58 69
2 10 11
2 4 18
2 99 100
2 126 125
3 71 52 61
3 122 135 137
2 12 11
3 120 101 134
2 47 44
2 9 7
2 41 39
2 98 94
2 30 34
2 57 68
2 23 22
2 81 82
2 41 40
2 58 67
2 108 129
2 75 76
3 63 71 49
2 60 42
2 109 129
2 117 113
2 111 108
2 119 122
2 132 134
2 20 31
3 120 135 101
2 133 130
3 71 50 62
3 119 135 100
2 52 50
2 104 103
3 84 71 74
2 14 13
2 31 34
2 81 79
3 71 85 74
2 110 109
2 99 129
3 120 135 102
2 123 114
2 58 40
2 72 73
2 127 125
2 18 15
2 53 49
2 99 95
3 48 60 39
2 6 8
2 119 121
2 17 18
2 123 122
2 97 98
3 118 100 134
3 48 60 40
2 58 68
2 104 94
2 105 100
3 48 60 41
2 123 121
3 123 137 134
2 123 101
2 80 78
2 65 67
2 122 100
2 22 21
2 138 137
2 23 25
2 53 71
2 14 10
2 97 100
2 57 59
2 123 102
2 108 107
2 57 56
2 19 20
2 105 104
2 16 15
2 122 114
2 66 68
2 141 142
2 20 30
2 59 55
3 70 60 75
2 112 107
2 54 55
2 88 90
2 118 123
2 132 131
2 93 90
2 123 112
2 112 117
2 47 45
2 53 56
2 17 15
2 59 41
2 4 7
2 81 80
2 37 33
2 114 112
2 124 129
2 109 125
2 56 55
3 119 102 134
2 126 124
3 71 82 75
2 52 48
2 99 96
2 84 71
2 97 95
3 56 64 45
2 132 130
2 115 117
2 97 101
2 46 45
2 75 74
2 87 85
2 122 102
2 106 129
2 25 21
2 109 113
2 42 39
3 47 56 68
2 54 51
2 91 90
2 103 95
2 103 101
3 118 101 134
2 10 9
2 101 100
2 68 67
2 15 32
2 112 108
2 118 122
3 70 60 74
3 136 123 134
2 77 76
2 59 38
2 20 15
3 71 82 74
2 70 71
2 31 35
3 44 54 64
2 120 118
2 103 102
2 118 121
2 83 85
3 118 135 101
2 89 99
3 63 71 52
2 135 134
2 57 52
2 22 24
2 100 96
2 103 97
3 84 70 73
2 120 123
2 104 98
2 131 134
3 118 135 102
2 6 5
2 111 107
3 44 56 64
2 123 113
3 71 51 62
2 128 126
3 47 67 55
2 111 110
3 138 123 135
2 47 48
2 119 118
2 53 52
2 114 113
2 106 127
2 97 96
2 8 7
2 57 55
2 77 75
3 46 64 55
2 128 129
2 104 100
3 84 71 75
3 71 49 62
2 52 49
2 69 68
2 26 21
2 2 3
3 71 85 75
2 37 36
2 93 100
3 71 85 73
2 53 55
2 103 96
3 84 70 76
2 57 58
2 3 5
2 110 107
2 120 122
2 80 83
2 106 125
2 25 24
2 27 30
2 33 34
2 120 121
2 16 20
2 141 140
2 87 86
2 115 114
2 66 69
2 35 33
2 59 68
2 46 44
2 19 17
2 58 55
2 104 95
2 100 94
2 51 48
2 58 39
2 37 34
2 57 54
2 63 62
3 47 68 55
2 95 96
2 102 101
2 91 100
2 66 64
2 32 31
2 108 106
2 133 134
2 66 67
2 109 106
2 58 41
2 77 74
3 54 64 45
2 57 38
2 104 102
3 71 83 74
2 104 99
2 101 96
2 135 130
3 119 101 134
2 44 45
2 19 15
2 114 117
3 71 52 62
2 4 15
2 53 54
2 59 60
2 98 96
3 136 123 135
2 43 42
2 3 6
2 131 130
2 107 129
2 83 82
2 110 108
3 138 123 134
3 119 135 101
2 41 38
2 17 16
2 41 42
2 99 97
2 114 109
2 6 7
2 2 1
3 122 137 134
2 60 39
2 54 50
2 108 127
3 47 56 69
2 109 127
2 86 85
2 60 40
3 119 135 102
2 128 125
2 74 73
3 53 70 62
2 8 5
2 72 76
2 99 127
2 87 88
2 115 112
2 111 114
2 107 106
2 26 24
2 75 73
2 58 38
3 47 56 64
2 80 82
3 71 50 61
3 47 56 67
2 116 114
2 79 78
2 40 39
2 139 137
3 120 135 100
2 9 8
2 114 108
1 0
1 1
1 2
1 3
1 4
1 5
1 6
1 7
1 8
1 9
1 10
1 11
1 12
1 13
1 14
1 15
1 16
1 17
1 18
1 19
1 20
1 21
1 22
1 23
1 24
1 25
1 26
1 27
1 28
1 29
1 30
1 31
1 32
1 33
1 34
1 35
1 36
1 37
1 38
1 39
1 40
1 41
1 42
1 43
1 44
1 45
1 46
1 47
1 48
1 49
1 50
1 51
1 52
1 53
1 54
1 55
1 56
1 57
1 58
1 59
1 60
1 61
1 62
1 63
1 64
1 65
1 66
1 67
1 68
1 69
1 70
1 71
1 72
1 73
1 74
1 75
1 76
1 77
1 78
1 79
1 80
1 81
1 82
1 83
1 84
1 85
1 86
1 87
1 88
1 89
1 90
1 91
1 92
1 93
1 94
1 95
1 96
1 97
1 98
1 99
1 100
1 101
1 102
1 103
1 104
1 105
1 106
1 107
1 108
1 109
1 110
1 111
1 112
1 113
1 114
1 115
1 116
1 117
1 118
1 119
1 120
1 121
1 122
1 123
1 124
1 125
1 126
1 127
1 128
1 129
1 130
1 131
1 132
1 133
1 134
1 135
1 136
1 137
1 138
1 139
1 140
1 141
1 142
8
0.0001
1.0
0.0001
1.0
1.0
1.0
1.0
1.0

32
1.0
0.0001
1.0
1.0
1.0
1.0
1.0
1.0
1.0
1.0
1.0
1.0
1.0
1.0
1.0
1.0
1.0
1.0
1.0
1.0
1.0
1.0
1.0
1.0
1.0
1.0
1.0
1.0
1.0
1.0
1.0
1.0

8
0.0001
1.0
1.0
1.0
0.0001
1.0
1.0
1.0

8
0.0001
1.0
0.0001
1.0
1.0
1.0
1.0
1.0

4
0.0001
1.0
1.0
1.0

16
0.0001
1.0
1.0
1.0
1.0
0.0001
1.0
1.0
1.0
1.0
0.0001
1.0
1.0
1.0
1.0
1.0

4
0.0001
1.0
1.0
1.0

8
1.0
1.0
0.0001
1.0
1.0
1.0
1.0
1.0

8
1.0
0.0001
1.0
1.0
1.0
1.0
1.0
1.0

8
0.0001
1.0
0.0001
1.0
1.0
1.0
1.0
1.0

32
1.0
0.0001
1.0
1.0
1.0
1.0
1.0
1.0
1.0
1.0
1.0
1.0
1.0
1.0
1.0
1.0
1.0
1.0
1.0
1.0
1.0
1.0
1.0
1.0
1.0
1.0
1.0
1.0
1.0
1.0
1.0
1.0

8
0.0001
1.0
1.0
1.0
0.0001
1.0
1.0
1.0

8
0.0001
1.0
1.0
1.0
0.0001
1.0
1.0
1.0

4
0.0001
1.0
1.0
1.0

32
1.0
1.0
1.0
1.0
1.0
1.0
1.0
1.0
0.0001
1.0
1.0
1.0
1.0
1.0
1.0
1.0
1.0
1.0
1.0
1.0
1.0
1.0
1.0
1.0
1.0
1.0
1.0
1.0
1.0
1.0
1.0
1.0

16
0.0001
1.0
1.0
1.0
1.0
0.0001
1.0
1.0
1.0
1.0
0.0001
1.0
1.0
1.0
1.0
1.0

8
0.0001
1.0
0.0001
1.0
1.0
1.0
1.0
1.0

16
0.0001
1.0
1.0
1.0
1.0
0.0001
1.0
1.0
1.0
1.0
0.0001
1.0
1.0
1.0
1.0
1.0

4
0.0001
1.0
1.0
1.0

8
1.0
1.0
0.0001
1.0
1.0
1.0
1.0
1.0

16
1.0
0.0001
1.0
1.0
1.0
1.0
1.0
1.0
1.0
1.0
1.0
1.0
1.0
1.0
1.0
1.0

4
0.0001
1.0
1.0
1.0

16
0.0001
1.0
1.0
1.0
1.0
0.0001
1.0
1.0
1.0
1.0
0.0001
1.0
1.0
1.0
1.0
1.0

16
0.0001
1.0
1.0
1.0
1.0
0.0001
1.0
1.0
1.0
1.0
0.0001
1.0
1.0
1.0
1.0
1.0

32
1.0
0.0001
1.0
1.0
1.0
1.0
1.0
1.0
1.0
1.0
1.0
1.0
1.0
1.0
1.0
1.0
1.0
1.0
1.0
1.0
1.0
1.0
1.0
1.0
1.0
1.0
1.0
1.0
1.0
1.0
1.0
1.0

32
1.0
1.0
1.0
1.0
0.0001
1.0
1.0
1.0
1.0
1.0
1.0
1.0
1.0
1.0
1.0
1.0
1.0
1.0
1.0
1.0
1.0
1.0
1.0
1.0
1.0
1.0
1.0
1.0
1.0
1.0
1.0
1.0

8
0.0001
1.0
1.0
1.0
0.0001
1.0
1.0
1.0

4
0.0001
1.0
1.0
1.0

8
0.0001
1.0
0.0001
1.0
1.0
1.0
1.0
1.0

4
0.0001
1.0
1.0
1.0

16
0.0001
1.0
1.0
1.0
1.0
0.0001
1.0
1.0
1.0
1.0
0.0001
1.0
1.0
1.0
1.0
1.0

8
1.0
0.0001
1.0
1.0
1.0
1.0
1.0
1.0

4
0.0001
1.0
1.0
1.0

16
0.0001
1.0
1.0
1.0
1.0
0.0001
1.0
1.0
1.0
1.0
0.0001
1.0
1.0
1.0
1.0
1.0

16
0.0001
1.0
1.0
1.0
1.0
0.0001
1.0
1.0
1.0
1.0
0.0001
1.0
1.0
1.0
1.0
1.0

8
0.0001
1.0
0.0001
1.0
1.0
1.0
1.0
1.0

8
0.0001
1.0
1.0
1.0
0.0001
1.0
1.0
1.0

4
0.0001
1.0
1.0
1.0

16
0.0001
1.0
1.0
1.0
1.0
0.0001
1.0
1.0
1.0
1.0
0.0001
1.0
1.0
1.0
1.0
1.0

8
0.0001
1.0
0.0001
1.0
1.0
1.0
1.0
1.0

8
0.0001
1.0
0.0001
1.0
1.0
1.0
1.0
1.0

32
1.0
1.0
1.0
1.0
0.0001
1.0
1.0
1.0
1.0
1.0
1.0
1.0
1.0
1.0
1.0
1.0
1.0
1.0
1.0
1.0
1.0
1.0
1.0
1.0
1.0
1.0
1.0
1.0
1.0
1.0
1.0
1.0

16
0.0001
1.0
1.0
1.0
1.0
1.0
1.0
1.0
1.0
1.0
1.0
1.0
1.0
1.0
1.0
1.0

4
0.0001
1.0
1.0
1.0

8
0.0001
1.0
0.0001
1.0
1.0
1.0
1.0
1.0

8
1.0
1.0
0.0001
1.0
1.0
1.0
1.0
1.0

4
0.0001
1.0
1.0
1.0

8
0.0001
1.0
0.0001
1.0
1.0
1.0
1.0
1.0

16
0.0001
1.0
1.0
1.0
1.0
0.0001
1.0
1.0
1.0
1.0
0.0001
1.0
1.0
1.0
1.0
1.0

16
0.0001
1.0
1.0
1.0
1.0
0.0001
1.0
1.0
1.0
1.0
0.0001
1.0
1.0
1.0
1.0
1.0

4
0.0001
1.0
1.0
1.0

8
0.0001
1.0
0.0001
1.0
1.0
1.0
1.0
1.0

16
0.0001
1.0
1.0
1.0
1.0
0.0001
1.0
1.0
1.0
1.0
0.0001
1.0
1.0
1.0
1.0
1.0

16
0.0001
1.0
1.0
1.0
1.0
0.0001
1.0
1.0
1.0
1.0
0.0001
1.0
1.0
1.0
1.0
1.0

8
0.0001
1.0
0.0001
1.0
1.0
1.0
1.0
1.0

4
0.0001
1.0
1.0
1.0

16
0.0001
1.0
1.0
1.0
1.0
0.0001
1.0
1.0
1.0
1.0
0.0001
1.0
1.0
1.0
1.0
1.0

4
0.0001
1.0
1.0
1.0

4
0.0001
1.0
1.0
1.0

4
0.0001
1.0
1.0
1.0

16
1.0
1.0
0.0001
1.0
1.0
1.0
1.0
1.0
1.0
1.0
1.0
1.0
1.0
1.0
1.0
1.0

8
0.0001
1.0
0.0001
1.0
1.0
1.0
1.0
1.0

8
1.0
0.0001
1.0
1.0
1.0
1.0
1.0
1.0

16
1.0
1.0
1.0
1.0
0.0001
1.0
1.0
1.0
1.0
1.0
1.0
1.0
1.0
1.0
1.0
1.0

4
0.0001
1.0
1.0
1.0

4
0.0001
1.0
1.0
1.0

16
0.0001
1.0
1.0
1.0
1.0
0.0001
1.0
1.0
1.0
1.0
0.0001
1.0
1.0
1.0
1.0
1.0

16
0.0001
1.0
1.0
1.0
1.0
0.0001
1.0
1.0
1.0
1.0
0.0001
1.0
1.0
1.0
1.0
1.0

8
0.0001
1.0
0.0001
1.0
1.0
1.0
1.0
1.0

16
0.0001
1.0
1.0
1.0
1.0
1.0
1.0
1.0
1.0
1.0
1.0
1.0
1.0
1.0
1.0
1.0

4
0.0001
1.0
1.0
1.0

64
1.0
1.0
1.0
1.0
1.0
1.0
1.0
1.0
1.0
1.0
1.0
1.0
1.0
1.0
1.0
1.0
1.0
1.0
1.0
1.0
1.0
1.0
1.0
1.0
0.0001
1.0
1.0
1.0
1.0
1.0
1.0
1.0
1.0
1.0
1.0
1.0
1.0
1.0
1.0
1.0
1.0
1.0
1.0
1.0
1.0
1.0
1.0
1.0
1.0
1.0
1.0
1.0
1.0
1.0
1.0
1.0
1.0
1.0
1.0
1.0
1.0
1.0
1.0
1.0

4
0.0001
1.0
1.0
1.0

4
0.0001
1.0
1.0
1.0

8
0.0001
1.0
0.0001
1.0
1.0
1.0
1.0
1.0

8
0.0001
1.0
0.0001
1.0
1.0
1.0
1.0
1.0

8
0.0001
1.0
1.0
1.0
0.0001
1.0
1.0
1.0

8
0.0001
1.0
0.0001
1.0
1.0
1.0
1.0
1.0

32
1.0
0.0001
1.0
1.0
1.0
1.0
1.0
1.0
1.0
1.0
1.0
1.0
1.0
1.0
1.0
1.0
1.0
1.0
1.0
1.0
1.0
1.0
1.0
1.0
1.0
1.0
1.0
1.0
1.0
1.0
1.0
1.0

8
1.0
0.0001
1.0
1.0
1.0
1.0
1.0
1.0

4
0.0001
1.0
1.0
1.0

8
0.0001
1.0
0.0001
1.0
1.0
1.0
1.0
1.0

8
0.0001
1.0
0.0001
1.0
1.0
1.0
1.0
1.0

16
0.0001
1.0
1.0
1.0
1.0
0.0001
1.0
1.0
1.0
1.0
0.0001
1.0
1.0
1.0
1.0
1.0

4
0.0001
1.0
1.0
1.0

4
0.0001
1.0
1.0
1.0

4
0.0001
1.0
1.0
1.0

4
0.0001
1.0
1.0
1.0

16
1.0
0.0001
1.0
1.0
1.0
1.0
1.0
1.0
1.0
1.0
1.0
1.0
1.0
1.0
1.0
1.0

16
0.0001
1.0
1.0
1.0
1.0
0.0001
1.0
1.0
1.0
1.0
0.0001
1.0
1.0
1.0
1.0
1.0

4
0.0001
1.0
1.0
1.0

4
0.0001
1.0
1.0
1.0

4
0.0001
1.0
1.0
1.0

4
0.0001
1.0
1.0
1.0

16
1.0
0.0001
1.0
1.0
1.0
1.0
1.0
1.0
1.0
1.0
1.0
1.0
1.0
1.0
1.0
1.0

8
0.0001
1.0
0.0001
1.0
1.0
1.0
1.0
1.0

4
0.0001
1.0
1.0
1.0

4
0.0001
1.0
1.0
1.0

8
0.0001
1.0
0.0001
1.0
1.0
1.0
1.0
1.0

8
0.0001
1.0
0.0001
1.0
1.0
1.0
1.0
1.0

16
0.0001
1.0
1.0
1.0
1.0
0.0001
1.0
1.0
1.0
1.0
0.0001
1.0
1.0
1.0
1.0
1.0

8
0.0001
1.0
0.0001
1.0
1.0
1.0
1.0
1.0

16
1.0
0.0001
1.0
1.0
1.0
1.0
1.0
1.0
1.0
1.0
1.0
1.0
1.0
1.0
1.0
1.0

16
0.0001
1.0
1.0
1.0
1.0
0.0001
1.0
1.0
1.0
1.0
0.0001
1.0
1.0
1.0
1.0
1.0

4
0.0001
1.0
1.0
1.0

4
0.0001
1.0
1.0
1.0

8
0.0001
1.0
0.0001
1.0
1.0
1.0
1.0
1.0

4
0.0001
1.0
1.0
1.0

4
0.0001
1.0
1.0
1.0

32
1.0
0.0001
1.0
1.0
1.0
1.0
1.0
1.0
1.0
1.0
1.0
1.0
1.0
1.0
1.0
1.0
1.0
1.0
1.0
1.0
1.0
1.0
1.0
1.0
1.0
1.0
1.0
1.0
1.0
1.0
1.0
1.0

4
0.0001
1.0
1.0
1.0

4
0.0001
1.0
1.0
1.0

8
1.0
0.0001
1.0
1.0
1.0
1.0
1.0
1.0

16
0.0001
1.0
1.0
1.0
1.0
0.0001
1.0
1.0
1.0
1.0
0.0001
1.0
1.0
1.0
1.0
1.0

16
1.0
1.0
0.0001
1.0
1.0
1.0
1.0
1.0
1.0
1.0
1.0
1.0
1.0
1.0
1.0
1.0

64
1.0
1.0
1.0
1.0
1.0
1.0
1.0
1.0
1.0
1.0
1.0
1.0
1.0
1.0
1.0
1.0
1.0
1.0
0.0001
1.0
1.0
1.0
1.0
1.0
1.0
1.0
1.0
1.0
1.0
1.0
1.0
1.0
1.0
1.0
1.0
1.0
1.0
1.0
1.0
1.0
1.0
1.0
1.0
1.0
1.0
1.0
1.0
1.0
1.0
1.0
1.0
1.0
1.0
1.0
1.0
1.0
1.0
1.0
1.0
1.0
1.0
1.0
1.0
1.0

8
0.0001
1.0
0.0001
1.0
1.0
1.0
1.0
1.0

4
0.0001
1.0
1.0
1.0

4
0.0001
1.0
1.0
1.0

32
1.0
0.0001
1.0
1.0
1.0
1.0
1.0
1.0
1.0
1.0
1.0
1.0
1.0
1.0
1.0
1.0
1.0
1.0
1.0
1.0
1.0
1.0
1.0
1.0
1.0
1.0
1.0
1.0
1.0
1.0
1.0
1.0

16
0.0001
1.0
1.0
1.0
1.0
0.0001
1.0
1.0
1.0
1.0
0.0001
1.0
1.0
1.0
1.0
1.0

4
0.0001
1.0
1.0
1.0

8
0.0001
1.0
1.0
1.0
0.0001
1.0
1.0
1.0

8
0.0001
1.0
0.0001
1.0
1.0
1.0
1.0
1.0

64
1.0
1.0
1.0
1.0
1.0
1.0
1.0
1.0
1.0
1.0
1.0
1.0
1.0
1.0
1.0
1.0
1.0
1.0
1.0
1.0
1.0
1.0
1.0
1.0
0.0001
1.0
1.0
1.0
1.0
1.0
1.0
1.0
1.0
1.0
1.0
1.0
1.0
1.0
1.0
1.0
1.0
1.0
1.0
1.0
1.0
1.0
1.0
1.0
1.0
1.0
1.0
1.0
1.0
1.0
1.0
1.0
1.0
1.0
1.0
1.0
1.0
1.0
1.0
1.0

4
0.0001
1.0
1.0
1.0

16
1.0
1.0
1.0
1.0
0.0001
1.0
1.0
1.0
1.0
1.0
1.0
1.0
1.0
1.0
1.0
1.0

16
0.0001
1.0
1.0
1.0
1.0
0.0001
1.0
1.0
1.0
1.0
0.0001
1.0
1.0
1.0
1.0
1.0

8
0.0001
1.0
1.0
1.0
1.0
1.0
1.0
1.0

8
0.0001
1.0
1.0
1.0
0.0001
1.0
1.0
1.0

8
0.0001
1.0
0.0001
1.0
1.0
1.0
1.0
1.0

8
0.0001
1.0
1.0
1.0
0.0001
1.0
1.0
1.0

4
0.0001
1.0
1.0
1.0

4
0.0001
1.0
1.0
1.0

16
0.0001
1.0
1.0
1.0
1.0
0.0001
1.0
1.0
1.0
1.0
0.0001
1.0
1.0
1.0
1.0
1.0

32
1.0
0.0001
1.0
1.0
1.0
1.0
1.0
1.0
1.0
1.0
1.0
1.0
1.0
1.0
1.0
1.0
1.0
1.0
1.0
1.0
1.0
1.0
1.0
1.0
1.0
1.0
1.0
1.0
1.0
1.0
1.0
1.0

8
0.0001
1.0
0.0001
1.0
1.0
1.0
1.0
1.0

4
0.0001
1.0
1.0
1.0

32
1.0
0.0001
1.0
1.0
1.0
1.0
1.0
1.0
1.0
1.0
1.0
1.0
1.0
1.0
1.0
1.0
1.0
1.0
1.0
1.0
1.0
1.0
1.0
1.0
1.0
1.0
1.0
1.0
1.0
1.0
1.0
1.0

4
0.0001
1.0
1.0
1.0

32
1.0
0.0001
1.0
1.0
1.0
1.0
1.0
1.0
1.0
1.0
1.0
1.0
1.0
1.0
1.0
1.0
1.0
1.0
1.0
1.0
1.0
1.0
1.0
1.0
1.0
1.0
1.0
1.0
1.0
1.0
1.0
1.0

8
0.0001
1.0
1.0
1.0
0.0001
1.0
1.0
1.0

8
0.0001
1.0
0.0001
1.0
1.0
1.0
1.0
1.0

4
0.0001
1.0
1.0
1.0

8
0.0001
1.0
1.0
1.0
1.0
1.0
1.0
1.0

8
0.0001
1.0
0.0001
1.0
1.0
1.0
1.0
1.0

4
0.0001
1.0
1.0
1.0

4
0.0001
1.0
1.0
1.0

16
0.0001
1.0
1.0
1.0
1.0
0.0001
1.0
1.0
1.0
1.0
0.0001
1.0
1.0
1.0
1.0
1.0

16
1.0
1.0
1.0
1.0
0.0001
1.0
1.0
1.0
1.0
1.0
1.0
1.0
1.0
1.0
1.0
1.0

4
0.0001
1.0
1.0
1.0

4
0.0001
1.0
1.0
1.0

4
0.0001
1.0
1.0
1.0

32
1.0
1.0
1.0
1.0
1.0
1.0
1.0
1.0
1.0
0.0001
1.0
1.0
1.0
1.0
1.0
1.0
1.0
1.0
1.0
1.0
1.0
1.0
1.0
1.0
1.0
1.0
1.0
1.0
1.0
1.0
1.0
1.0

16
0.0001
1.0
1.0
1.0
1.0
0.0001
1.0
1.0
1.0
1.0
0.0001
1.0
1.0
1.0
1.0
1.0

8
1.0
0.0001
1.0
1.0
1.0
1.0
1.0
1.0

8
1.0
1.0
0.0001
1.0
1.0
1.0
1.0
1.0

8
0.0001
1.0
0.0001
1.0
1.0
1.0
1.0
1.0

8
0.0001
1.0
0.0001
1.0
1.0
1.0
1.0
1.0

64
1.0
1.0
1.0
1.0
1.0
1.0
1.0
1.0
1.0
1.0
1.0
1.0
1.0
1.0
1.0
1.0
1.0
1.0
1.0
1.0
1.0
1.0
1.0
1.0
0.0001
1.0
1.0
1.0
1.0
1.0
1.0
1.0
1.0
1.0
1.0
1.0
1.0
1.0
1.0
1.0
1.0
1.0
1.0
1.0
1.0
1.0
1.0
1.0
1.0
1.0
1.0
1.0
1.0
1.0
1.0
1.0
1.0
1.0
1.0
1.0
1.0
1.0
1.0
1.0

16
0.0001
1.0
1.0
1.0
1.0
0.0001
1.0
1.0
1.0
1.0
0.0001
1.0
1.0
1.0
1.0
1.0

8
0.0001
1.0
1.0
1.0
1.0
1.0
1.0
1.0

4
0.0001
1.0
1.0
1.0

8
1.0
0.0001
1.0
1.0
1.0
1.0
1.0
1.0

4
0.0001
1.0
1.0
1.0

4
0.0001
1.0
1.0
1.0

8
1.0
0.0001
1.0
1.0
1.0
1.0
1.0
1.0

4
0.0001
1.0
1.0
1.0

8
0.0001
1.0
0.0001
1.0
1.0
1.0
1.0
1.0

4
0.0001
1.0
1.0
1.0

8
0.0001
1.0
0.0001
1.0
1.0
1.0
1.0
1.0

8
0.0001
1.0
1.0
1.0
1.0
1.0
1.0
1.0

4
0.0001
1.0
1.0
1.0

8
0.0001
1.0
0.0001
1.0
1.0
1.0
1.0
1.0

8
0.0001
1.0
0.0001
1.0
1.0
1.0
1.0
1.0

8
0.0001
1.0
1.0
1.0
0.0001
1.0
1.0
1.0

4
0.0001
1.0
1.0
1.0

16
0.0001
1.0
1.0
1.0
1.0
0.0001
1.0
1.0
1.0
1.0
0.0001
1.0
1.0
1.0
1.0
1.0

4
0.0001
1.0
1.0
1.0

4
0.0001
1.0
1.0
1.0

32
1.0
1.0
1.0
1.0
1.0
1.0
1.0
1.0
1.0
0.0001
1.0
1.0
1.0
1.0
1.0
1.0
1.0
1.0
1.0
1.0
1.0
1.0
1.0
1.0
1.0
1.0
1.0
1.0
1.0
1.0
1.0
1.0

4
0.0001
1.0
1.0
1.0

8
0.0001
1.0
0.0001
1.0
1.0
1.0
1.0
1.0

4
0.0001
1.0
1.0
1.0

32
1.0
1.0
1.0
1.0
0.0001
1.0
1.0
1.0
1.0
1.0
1.0
1.0
1.0
1.0
1.0
1.0
1.0
1.0
1.0
1.0
1.0
1.0
1.0
1.0
1.0
1.0
1.0
1.0
1.0
1.0
1.0
1.0

64
1.0
1.0
1.0
1.0
1.0
1.0
1.0
1.0
1.0
1.0
1.0
1.0
1.0
1.0
1.0
1.0
1.0
1.0
1.0
1.0
1.0
1.0
1.0
1.0
0.0001
1.0
1.0
1.0
1.0
1.0
1.0
1.0
1.0
1.0
1.0
1.0
1.0
1.0
1.0
1.0
1.0
1.0
1.0
1.0
1.0
1.0
1.0
1.0
1.0
1.0
1.0
1.0
1.0
1.0
1.0
1.0
1.0
1.0
1.0
1.0
1.0
1.0
1.0
1.0

4
0.0001
1.0
1.0
1.0

16
0.0001
1.0
1.0
1.0
1.0
0.0001
1.0
1.0
1.0
1.0
0.0001
1.0
1.0
1.0
1.0
1.0

8
0.0001
1.0
1.0
1.0
0.0001
1.0
1.0
1.0

4
0.0001
1.0
1.0
1.0

16
0.0001
1.0
1.0
1.0
1.0
0.0001
1.0
1.0
1.0
1.0
0.0001
1.0
1.0
1.0
1.0
1.0

8
1.0
0.0001
1.0
1.0
1.0
1.0
1.0
1.0

4
0.0001
1.0
1.0
1.0

4
0.0001
1.0
1.0
1.0

8
0.0001
1.0
0.0001
1.0
1.0
1.0
1.0
1.0

4
0.0001
1.0
1.0
1.0

16
1.0
1.0
1.0
1.0
0.0001
1.0
1.0
1.0
1.0
1.0
1.0
1.0
1.0
1.0
1.0
1.0

32
1.0
1.0
1.0
1.0
0.0001
1.0
1.0
1.0
1.0
1.0
1.0
1.0
1.0
1.0
1.0
1.0
1.0
1.0
1.0
1.0
1.0
1.0
1.0
1.0
1.0
1.0
1.0
1.0
1.0
1.0
1.0
1.0

4
0.0001
1.0
1.0
1.0

64
1.0
1.0
1.0
1.0
1.0
1.0
1.0
1.0
1.0
1.0
1.0
1.0
1.0
1.0
1.0
1.0
1.0
1.0
1.0
1.0
1.0
1.0
1.0
1.0
0.0001
1.0
1.0
1.0
1.0
1.0
1.0
1.0
1.0
1.0
1.0
1.0
1.0
1.0
1.0
1.0
1.0
1.0
1.0
1.0
1.0
1.0
1.0
1.0
1.0
1.0
1.0
1.0
1.0
1.0
1.0
1.0
1.0
1.0
1.0
1.0
1.0
1.0
1.0
1.0

4
0.0001
1.0
1.0
1.0

8
0.0001
1.0
0.0001
1.0
1.0
1.0
1.0
1.0

4
0.0001
1.0
1.0
1.0

16
0.0001
1.0
1.0
1.0
1.0
0.0001
1.0
1.0
1.0
1.0
0.0001
1.0
1.0
1.0
1.0
1.0

8
0.0001
1.0
0.0001
1.0
1.0
1.0
1.0
1.0

8
1.0
0.0001
1.0
1.0
1.0
1.0
1.0
1.0

4
0.0001
1.0
1.0
1.0

8
0.0001
1.0
1.0
1.0
0.0001
1.0
1.0
1.0

4
0.0001
1.0
1.0
1.0

8
1.0
0.0001
1.0
1.0
1.0
1.0
1.0
1.0

8
1.0
1.0
0.0001
1.0
1.0
1.0
1.0
1.0

16
0.0001
1.0
1.0
1.0
1.0
0.0001
1.0
1.0
1.0
1.0
0.0001
1.0
1.0
1.0
1.0
1.0

16
1.0
1.0
0.0001
1.0
1.0
1.0
1.0
1.0
1.0
1.0
1.0
1.0
1.0
1.0
1.0
1.0

4
0.0001
1.0
1.0
1.0

8
1.0
1.0
0.0001
1.0
1.0
1.0
1.0
1.0

16
0.0001
1.0
1.0
1.0
1.0
0.0001
1.0
1.0
1.0
1.0
0.0001
1.0
1.0
1.0
1.0
1.0

8
0.0001
1.0
0.0001
1.0
1.0
1.0
1.0
1.0

8
0.0001
1.0
1.0
1.0
0.0001
1.0
1.0
1.0

16
0.0001
1.0
1.0
1.0
1.0
0.0001
1.0
1.0
1.0
1.0
0.0001
1.0
1.0
1.0
1.0
1.0

4
0.0001
1.0
1.0
1.0

64
1.0
1.0
1.0
1.0
1.0
1.0
1.0
1.0
1.0
1.0
1.0
1.0
1.0
1.0
1.0
1.0
1.0
1.0
0.0001
1.0
1.0
1.0
1.0
1.0
1.0
1.0
1.0
1.0
1.0
1.0
1.0
1.0
1.0
1.0
1.0
1.0
1.0
1.0
1.0
1.0
1.0
1.0
1.0
1.0
1.0
1.0
1.0
1.0
1.0
1.0
1.0
1.0
1.0
1.0
1.0
1.0
1.0
1.0
1.0
1.0
1.0
1.0
1.0
1.0

16
0.0001
1.0
1.0
1.0
1.0
0.0001
1.0
1.0
1.0
1.0
0.0001
1.0
1.0
1.0
1.0
1.0

16
1.0
1.0
1.0
1.0
0.0001
1.0
1.0
1.0
1.0
1.0
1.0
1.0
1.0
1.0
1.0
1.0

64
1.0
1.0
1.0
1.0
1.0
1.0
1.0
1.0
1.0
1.0
1.0
1.0
1.0
1.0
1.0
1.0
1.0
1.0
0.0001
1.0
1.0
1.0
1.0
1.0
1.0
1.0
1.0
1.0
1.0
1.0
1.0
1.0
1.0
1.0
1.0
1.0
1.0
1.0
1.0
1.0
1.0
1.0
1.0
1.0
1.0
1.0
1.0
1.0
1.0
1.0
1.0
1.0
1.0
1.0
1.0
1.0
1.0
1.0
1.0
1.0
1.0
1.0
1.0
1.0

16
0.0001
1.0
1.0
1.0
1.0
0.0001
1.0
1.0
1.0
1.0
0.0001
1.0
1.0
1.0
1.0
1.0

4
0.0001
1.0
1.0
1.0

16
1.0
0.0001
1.0
1.0
1.0
1.0
1.0
1.0
1.0
1.0
1.0
1.0
1.0
1.0
1.0
1.0

4
0.0001
1.0
1.0
1.0

8
0.0001
1.0
0.0001
1.0
1.0
1.0
1.0
1.0

8
0.0001
1.0
1.0
1.0
0.0001
1.0
1.0
1.0

32
1.0
0.0001
1.0
1.0
1.0
1.0
1.0
1.0
1.0
1.0
1.0
1.0
1.0
1.0
1.0
1.0
1.0
1.0
1.0
1.0
1.0
1.0
1.0
1.0
1.0
1.0
1.0
1.0
1.0
1.0
1.0
1.0

8
0.0001
1.0
0.0001
1.0
1.0
1.0
1.0
1.0

4
0.0001
1.0
1.0
1.0

64
1.0
1.0
1.0
1.0
1.0
1.0
1.0
1.0
1.0
1.0
1.0
1.0
1.0
1.0
1.0
1.0
1.0
1.0
0.0001
1.0
1.0
1.0
1.0
1.0
1.0
1.0
1.0
1.0
1.0
1.0
1.0
1.0
1.0
1.0
1.0
1.0
1.0
1.0
1.0
1.0
1.0
1.0
1.0
1.0
1.0
1.0
1.0
1.0
1.0
1.0
1.0
1.0
1.0
1.0
1.0
1.0
1.0
1.0
1.0
1.0
1.0
1.0
1.0
1.0

8
0.0001
1.0
0.0001
1.0
1.0
1.0
1.0
1.0

4
0.0001
1.0
1.0
1.0

8
0.0001
1.0
0.0001
1.0
1.0
1.0
1.0
1.0

4
0.0001
1.0
1.0
1.0

4
0.0001
1.0
1.0
1.0

8
0.0001
1.0
0.0001
1.0
1.0
1.0
1.0
1.0

4
0.0001
1.0
1.0
1.0

16
1.0
1.0
1.0
1.0
0.0001
1.0
1.0
1.0
1.0
1.0
1.0
1.0
1.0
1.0
1.0
1.0

8
1.0
0.0001
1.0
1.0
1.0
1.0
1.0
1.0

8
0.0001
1.0
1.0
1.0
0.0001
1.0
1.0
1.0

8
0.0001
1.0
1.0
1.0
0.0001
1.0
1.0
1.0

4
0.0001
1.0
1.0
1.0

8
0.0001
1.0
0.0001
1.0
1.0
1.0
1.0
1.0

64
1.0
1.0
1.0
1.0
1.0
1.0
1.0
1.0
1.0
1.0
1.0
1.0
1.0
1.0
1.0
1.0
1.0
1.0
1.0
1.0
1.0
1.0
1.0
1.0
0.0001
1.0
1.0
1.0
1.0
1.0
1.0
1.0
1.0
1.0
1.0
1.0
1.0
1.0
1.0
1.0
1.0
1.0
1.0
1.0
1.0
1.0
1.0
1.0
1.0
1.0
1.0
1.0
1.0
1.0
1.0
1.0
1.0
1.0
1.0
1.0
1.0
1.0
1.0
1.0

16
1.0
1.0
1.0
1.0
0.0001
1.0
1.0
1.0
1.0
1.0
1.0
1.0
1.0
1.0
1.0
1.0

8
1.0
0.0001
1.0
1.0
1.0
1.0
1.0
1.0

8
0.0001
1.0
0.0001
1.0
1.0
1.0
1.0
1.0

8
0.0001
1.0
0.0001
1.0
1.0
1.0
1.0
1.0

16
1.0
1.0
1.0
1.0
0.0001
1.0
1.0
1.0
1.0
1.0
1.0
1.0
1.0
1.0
1.0
1.0

4
0.0001
1.0
1.0
1.0

32
1.0
0.0001
1.0
1.0
1.0
1.0
1.0
1.0
1.0
1.0
1.0
1.0
1.0
1.0
1.0
1.0
1.0
1.0
1.0
1.0
1.0
1.0
1.0
1.0
1.0
1.0
1.0
1.0
1.0
1.0
1.0
1.0

8
1.0
0.0001
1.0
1.0
1.0
1.0
1.0
1.0

8
0.0001
1.0
1.0
1.0
0.0001
1.0
1.0
1.0

16
0.0001
1.0
1.0
1.0
1.0
0.0001
1.0
1.0
1.0
1.0
0.0001
1.0
1.0
1.0
1.0
1.0

8
1.0
0.0001
1.0
1.0
1.0
1.0
1.0
1.0

4
0.0001
1.0
1.0
1.0

16
0.0001
1.0
1.0
1.0
1.0
0.0001
1.0
1.0
1.0
1.0
0.0001
1.0
1.0
1.0
1.0
1.0

4
0.0001
1.0
1.0
1.0

4
0.0001
1.0
1.0
1.0

4
0.0001
1.0
1.0
1.0

8
0.0001
1.0
0.0001
1.0
1.0
1.0
1.0
1.0

4
0.0001
1.0
1.0
1.0

8
1.0
0.0001
1.0
1.0
1.0
1.0
1.0
1.0

16
0.0001
1.0
1.0
1.0
1.0
0.0001
1.0
1.0
1.0
1.0
0.0001
1.0
1.0
1.0
1.0
1.0

8
0.0001
1.0
0.0001
1.0
1.0
1.0
1.0
1.0

8
0.0001
1.0
1.0
1.0
0.0001
1.0
1.0
1.0

4
0.0001
1.0
1.0
1.0

8
0.0001
1.0
1.0
1.0
0.0001
1.0
1.0
1.0

8
0.0001
1.0
0.0001
1.0
1.0
1.0
1.0
1.0

8
0.0001
1.0
0.0001
1.0
1.0
1.0
1.0
1.0

4
0.0001
1.0
1.0
1.0

4
0.0001
1.0
1.0
1.0

8
0.0001
1.0
0.0001
1.0
1.0
1.0
1.0
1.0

32
1.0
1.0
1.0
1.0
1.0
1.0
1.0
1.0
0.0001
1.0
1.0
1.0
1.0
1.0
1.0
1.0
1.0
1.0
1.0
1.0
1.0
1.0
1.0
1.0
1.0
1.0
1.0
1.0
1.0
1.0
1.0
1.0

16
0.0001
1.0
1.0
1.0
1.0
0.0001
1.0
1.0
1.0
1.0
0.0001
1.0
1.0
1.0
1.0
1.0

16
0.0001
1.0
1.0
1.0
1.0
0.0001
1.0
1.0
1.0
1.0
0.0001
1.0
1.0
1.0
1.0
1.0

4
0.0001
1.0
1.0
1.0

8
0.0001
1.0
1.0
1.0
0.0001
1.0
1.0
1.0

16
0.0001
1.0
1.0
1.0
1.0
0.0001
1.0
1.0
1.0
1.0
0.0001
1.0
1.0
1.0
1.0
1.0

4
0.0001
1.0
1.0
1.0

8
0.0001
1.0
0.0001
1.0
1.0
1.0
1.0
1.0

16
0.0001
1.0
1.0
1.0
1.0
0.0001
1.0
1.0
1.0
1.0
0.0001
1.0
1.0
1.0
1.0
1.0

4
0.0001
1.0
1.0
1.0

8
0.0001
1.0
0.0001
1.0
1.0
1.0
1.0
1.0

8
0.0001
1.0
1.0
1.0
0.0001
1.0
1.0
1.0

4
0.0001
1.0
1.0
1.0

8
0.0001
1.0
0.0001
1.0
1.0
1.0
1.0
1.0

16
0.0001
1.0
1.0
1.0
1.0
0.0001
1.0
1.0
1.0
1.0
0.0001
1.0
1.0
1.0
1.0
1.0

4
0.0001
1.0
1.0
1.0

16
0.0001
1.0
1.0
1.0
1.0
0.0001
1.0
1.0
1.0
1.0
0.0001
1.0
1.0
1.0
1.0
1.0

4
0.0001
1.0
1.0
1.0

8
1.0
1.0
0.0001
1.0
1.0
1.0
1.0
1.0

16
0.0001
1.0
1.0
1.0
1.0
0.0001
1.0
1.0
1.0
1.0
0.0001
1.0
1.0
1.0
1.0
1.0

64
1.0
1.0
1.0
1.0
1.0
1.0
1.0
1.0
1.0
1.0
1.0
1.0
1.0
1.0
1.0
1.0
1.0
1.0
1.0
1.0
1.0
1.0
1.0
1.0
0.0001
1.0
1.0
1.0
1.0
1.0
1.0
1.0
1.0
1.0
1.0
1.0
1.0
1.0
1.0
1.0
1.0
1.0
1.0
1.0
1.0
1.0
1.0
1.0
1.0
1.0
1.0
1.0
1.0
1.0
1.0
1.0
1.0
1.0
1.0
1.0
1.0
1.0
1.0
1.0

4
0.0001
1.0
1.0
1.0

16
1.0
0.0001
1.0
1.0
1.0
1.0
1.0
1.0
1.0
1.0
1.0
1.0
1.0
1.0
1.0
1.0

16
0.0001
1.0
1.0
1.0
1.0
0.0001
1.0
1.0
1.0
1.0
0.0001
1.0
1.0
1.0
1.0
1.0

8
0.0001
1.0
0.0001
1.0
1.0
1.0
1.0
1.0

4
0.0001
1.0
1.0
1.0

4
0.0001
1.0
1.0
1.0

32
1.0
1.0
1.0
1.0
1.0
1.0
1.0
1.0
0.0001
1.0
1.0
1.0
1.0
1.0
1.0
1.0
1.0
1.0
1.0
1.0
1.0
1.0
1.0
1.0
1.0
1.0
1.0
1.0
1.0
1.0
1.0
1.0

16
0.0001
1.0
1.0
1.0
1.0
0.0001
1.0
1.0
1.0
1.0
0.0001
1.0
1.0
1.0
1.0
1.0

8
0.0001
1.0
0.0001
1.0
1.0
1.0
1.0
1.0

8
0.0001
1.0
0.0001
1.0
1.0
1.0
1.0
1.0

4
0.0001
1.0
1.0
1.0

16
0.0001
1.0
1.0
1.0
1.0
0.0001
1.0
1.0
1.0
1.0
0.0001
1.0
1.0
1.0
1.0
1.0

8
0.0001
1.0
0.0001
1.0
1.0
1.0
1.0
1.0

8
1.0
0.0001
1.0
1.0
1.0
1.0
1.0
1.0

8
1.0
1.0
0.0001
1.0
1.0
1.0
1.0
1.0

4
0.0001
1.0
1.0
1.0

16
0.0001
1.0
1.0
1.0
1.0
0.0001
1.0
1.0
1.0
1.0
0.0001
1.0
1.0
1.0
1.0
1.0

4
0.0001
1.0
1.0
1.0

32
1.0
1.0
1.0
1.0
0.0001
1.0
1.0
1.0
1.0
1.0
1.0
1.0
1.0
1.0
1.0
1.0
1.0
1.0
1.0
1.0
1.0
1.0
1.0
1.0
1.0
1.0
1.0
1.0
1.0
1.0
1.0
1.0

16
0.0001
1.0
1.0
1.0
1.0
0.0001
1.0
1.0
1.0
1.0
0.0001
1.0
1.0
1.0
1.0
1.0

4
0.0001
1.0
1.0
1.0

4
0.0001
1.0
1.0
1.0

8
0.0001
1.0
0.0001
1.0
1.0
1.0
1.0
1.0

64
1.0
1.0
1.0
1.0
1.0
1.0
1.0
1.0
1.0
1.0
1.0
1.0
1.0
1.0
1.0
1.0
1.0
1.0
1.0
1.0
1.0
1.0
1.0
1.0
0.0001
1.0
1.0
1.0
1.0
1.0
1.0
1.0
1.0
1.0
1.0
1.0
1.0
1.0
1.0
1.0
1.0
1.0
1.0
1.0
1.0
1.0
1.0
1.0
1.0
1.0
1.0
1.0
1.0
1.0
1.0
1.0
1.0
1.0
1.0
1.0
1.0
1.0
1.0
1.0

4
0.0001
1.0
1.0
1.0

16
0.0001
1.0
1.0
1.0
1.0
0.0001
1.0
1.0
1.0
1.0
0.0001
1.0
1.0
1.0
1.0
1.0

16
0.0001
1.0
1.0
1.0
1.0
0.0001
1.0
1.0
1.0
1.0
0.0001
1.0
1.0
1.0
1.0
1.0

4
0.0001
1.0
1.0
1.0

16
0.0001
1.0
1.0
1.0
1.0
0.0001
1.0
1.0
1.0
1.0
0.0001
1.0
1.0
1.0
1.0
1.0

8
0.0001
1.0
1.0
1.0
0.0001
1.0
1.0
1.0

32
1.0
1.0
1.0
1.0
1.0
1.0
1.0
1.0
0.0001
1.0
1.0
1.0
1.0
1.0
1.0
1.0
1.0
1.0
1.0
1.0
1.0
1.0
1.0
1.0
1.0
1.0
1.0
1.0
1.0
1.0
1.0
1.0

32
1.0
0.0001
1.0
1.0
1.0
1.0
1.0
1.0
1.0
1.0
1.0
1.0
1.0
1.0
1.0
1.0
1.0
1.0
1.0
1.0
1.0
1.0
1.0
1.0
1.0
1.0
1.0
1.0
1.0
1.0
1.0
1.0

8
0.0001
1.0
0.0001
1.0
1.0
1.0
1.0
1.0

4
0.0001
1.0
1.0
1.0

4
0.0001
1.0
1.0
1.0

16
1.0
0.0001
1.0
1.0
1.0
1.0
1.0
1.0
1.0
1.0
1.0
1.0
1.0
1.0
1.0
1.0

8
0.0001
1.0
1.0
1.0
0.0001
1.0
1.0
1.0

4
0.0001
1.0
1.0
1.0

32
1.0
1.0
1.0
1.0
0.0001
1.0
1.0
1.0
1.0
1.0
1.0
1.0
1.0
1.0
1.0
1.0
1.0
1.0
1.0
1.0
1.0
1.0
1.0
1.0
1.0
1.0
1.0
1.0
1.0
1.0
1.0
1.0

16
0.0001
1.0
1.0
1.0
1.0
0.0001
1.0
1.0
1.0
1.0
0.0001
1.0
1.0
1.0
1.0
1.0

8
0.0001
1.0
0.0001
1.0
1.0
1.0
1.0
1.0

8
0.0001
1.0
1.0
1.0
0.0001
1.0
1.0
1.0

8
0.0001
1.0
0.0001
1.0
1.0
1.0
1.0
1.0

64
1.0
1.0
1.0
1.0
1.0
1.0
1.0
1.0
1.0
1.0
1.0
1.0
1.0
1.0
1.0
1.0
1.0
1.0
0.0001
1.0
1.0
1.0
1.0
1.0
1.0
1.0
1.0
1.0
1.0
1.0
1.0
1.0
1.0
1.0
1.0
1.0
1.0
1.0
1.0
1.0
1.0
1.0
1.0
1.0
1.0
1.0
1.0
1.0
1.0
1.0
1.0
1.0
1.0
1.0
1.0
1.0
1.0
1.0
1.0
1.0
1.0
1.0
1.0
1.0

4
0.0001
1.0
1.0
1.0

16
1.0
1.0
0.0001
1.0
1.0
1.0
1.0
1.0
1.0
1.0
1.0
1.0
1.0
1.0
1.0
1.0

16
0.0001
1.0
1.0
1.0
1.0
0.0001
1.0
1.0
1.0
1.0
0.0001
1.0
1.0
1.0
1.0
1.0

8
0.0001
1.0
0.0001
1.0
1.0
1.0
1.0
1.0

4
0.0001
1.0
1.0
1.0

16
0.0001
1.0
1.0
1.0
1.0
0.0001
1.0
1.0
1.0
1.0
0.0001
1.0
1.0
1.0
1.0
1.0

4
0.0001
1.0
1.0
1.0

32
1.0
1.0
1.0
1.0
1.0
1.0
1.0
1.0
1.0
0.0001
1.0
1.0
1.0
1.0
1.0
1.0
1.0
1.0
1.0
1.0
1.0
1.0
1.0
1.0
1.0
1.0
1.0
1.0
1.0
1.0
1.0
1.0

8
0.0001
1.0
1.0
1.0
0.0001
1.0
1.0
1.0

8
0.0001
1.0
0.0001
1.0
1.0
1.0
1.0
1.0

16
0.0001
1.0
1.0
1.0
1.0
0.0001
1.0
1.0
1.0
1.0
0.0001
1.0
1.0
1.0
1.0
1.0

64
1.0
1.0
1.0
1.0
1.0
1.0
1.0
1.0
1.0
1.0
1.0
1.0
1.0
1.0
1.0
1.0
1.0
1.0
0.0001
1.0
1.0
1.0
1.0
1.0
1.0
1.0
1.0
1.0
1.0
1.0
1.0
1.0
1.0
1.0
1.0
1.0
1.0
1.0
1.0
1.0
1.0
1.0
1.0
1.0
1.0
1.0
1.0
1.0
1.0
1.0
1.0
1.0
1.0
1.0
1.0
1.0
1.0
1.0
1.0
1.0
1.0
1.0
1.0
1.0

4
0.0001
1.0
1.0
1.0

8
0.0001
1.0
0.0001
1.0
1.0
1.0
1.0
1.0

32
1.0
1.0
1.0
1.0
0.0001
1.0
1.0
1.0
1.0
1.0
1.0
1.0
1.0
1.0
1.0
1.0
1.0
1.0
1.0
1.0
1.0
1.0
1.0
1.0
1.0
1.0
1.0
1.0
1.0
1.0
1.0
1.0

8
0.0001
1.0
0.0001
1.0
1.0
1.0
1.0
1.0

16
1.0
1.0
1.0
1.0
0.0001
1.0
1.0
1.0
1.0
1.0
1.0
1.0
1.0
1.0
1.0
1.0

4
0.0001
1.0
1.0
1.0

32
1.0
0.0001
1.0
1.0
1.0
1.0
1.0
1.0
1.0
1.0
1.0
1.0
1.0
1.0
1.0
1.0
1.0
1.0
1.0
1.0
1.0
1.0
1.0
1.0
1.0
1.0
1.0
1.0
1.0
1.0
1.0
1.0

4
0.0001
1.0
1.0
1.0

32
1.0
0.0001
1.0
1.0
1.0
1.0
1.0
1.0
1.0
1.0
1.0
1.0
1.0
1.0
1.0
1.0
1.0
1.0
1.0
1.0
1.0
1.0
1.0
1.0
1.0
1.0
1.0
1.0
1.0
1.0
1.0
1.0

8
0.0001
1.0
0.0001
1.0
1.0
1.0
1.0
1.0

16
0.0001
1.0
1.0
1.0
1.0
0.0001
1.0
1.0
1.0
1.0
0.0001
1.0
1.0
1.0
1.0
1.0

8
0.0001
1.0
0.0001
1.0
1.0
1.0
1.0
1.0

16
0.0001
1.0
1.0
1.0
1.0
0.0001
1.0
1.0
1.0
1.0
0.0001
1.0
1.0
1.0
1.0
1.0

8
1.0
1.0
0.0001
1.0
1.0
1.0
1.0
1.0

8
0.0001
1.0
0.0001
1.0
1.0
1.0
1.0
1.0

16
0.0001
1.0
1.0
1.0
1.0
0.0001
1.0
1.0
1.0
1.0
0.0001
1.0
1.0
1.0
1.0
1.0

8
0.0001
1.0
0.0001
1.0
1.0
1.0
1.0
1.0

8
0.0001
1.0
0.0001
1.0
1.0
1.0
1.0
1.0

32
1.0
0.0001
1.0
1.0
1.0
1.0
1.0
1.0
1.0
1.0
1.0
1.0
1.0
1.0
1.0
1.0
1.0
1.0
1.0
1.0
1.0
1.0
1.0
1.0
1.0
1.0
1.0
1.0
1.0
1.0
1.0
1.0

4
0.0001
1.0
1.0
1.0

8
0.0001
1.0
0.0001
1.0
1.0
1.0
1.0
1.0

16
1.0
0.0001
1.0
1.0
1.0
1.0
1.0
1.0
1.0
1.0
1.0
1.0
1.0
1.0
1.0
1.0

16
1.0
1.0
1.0
1.0
0.0001
1.0
1.0
1.0
1.0
1.0
1.0
1.0
1.0
1.0
1.0
1.0

16
0.0001
1.0
1.0
1.0
1.0
0.0001
1.0
1.0
1.0
1.0
0.0001
1.0
1.0
1.0
1.0
1.0

16
0.0001
1.0
1.0
1.0
1.0
0.0001
1.0
1.0
1.0
1.0
0.0001
1.0
1.0
1.0
1.0
1.0

4
0.0001
1.0
1.0
1.0

16
0.0001
1.0
1.0
1.0
1.0
0.0001
1.0
1.0
1.0
1.0
0.0001
1.0
1.0
1.0
1.0
1.0

32
1.0
0.0001
1.0
1.0
1.0
1.0
1.0
1.0
1.0
1.0
1.0
1.0
1.0
1.0
1.0
1.0
1.0
1.0
1.0
1.0
1.0
1.0
1.0
1.0
1.0
1.0
1.0
1.0
1.0
1.0
1.0
1.0

4
0.0001
1.0
1.0
1.0

8
0.0001
1.0
1.0
1.0
1.0
1.0
1.0
1.0

32
1.0
0.0001
1.0
1.0
1.0
1.0
1.0
1.0
1.0
1.0
1.0
1.0
1.0
1.0
1.0
1.0
1.0
1.0
1.0
1.0
1.0
1.0
1.0
1.0
1.0
1.0
1.0
1.0
1.0
1.0
1.0
1.0

8
0.0001
1.0
0.0001
1.0
1.0
1.0
1.0
1.0

8
0.0001
1.0
0.0001
1.0
1.0
1.0
1.0
1.0

32
1.0
1.0
1.0
1.0
1.0
1.0
1.0
1.0
1.0
0.0001
1.0
1.0
1.0
1.0
1.0
1.0
1.0
1.0
1.0
1.0
1.0
1.0
1.0
1.0
1.0
1.0
1.0
1.0
1.0
1.0
1.0
1.0

4
0.0001
1.0
1.0
1.0

8
1.0
1.0
0.0001
1.0
1.0
1.0
1.0
1.0

8
0.0001
1.0
0.0001
1.0
1.0
1.0
1.0
1.0

8
0.0001
1.0
1.0
1.0
0.0001
1.0
1.0
1.0

8
0.0001
1.0
1.0
1.0
0.0001
1.0
1.0
1.0

8
1.0
1.0
0.0001
1.0
1.0
1.0
1.0
1.0

4
0.0001
1.0
1.0
1.0

4
0.0001
1.0
1.0
1.0

8
0.0001
1.0
0.0001
1.0
1.0
1.0
1.0
1.0

8
0.0001
1.0
1.0
1.0
0.0001
1.0
1.0
1.0

8
0.0001
1.0
1.0
1.0
0.0001
1.0
1.0
1.0

4
0.0001
1.0
1.0
1.0

4
0.0001
1.0
1.0
1.0

8
0.0001
1.0
0.0001
1.0
1.0
1.0
1.0
1.0

8
0.0001
1.0
0.0001
1.0
1.0
1.0
1.0
1.0

4
0.0001
1.0
1.0
1.0

8
1.0
0.0001
1.0
1.0
1.0
1.0
1.0
1.0

4
0.0001
1.0
1.0
1.0

16
0.0001
1.0
1.0
1.0
1.0
0.0001
1.0
1.0
1.0
1.0
0.0001
1.0
1.0
1.0
1.0
1.0

8
0.0001
1.0
0.0001
1.0
1.0
1.0
1.0
1.0

4
0.0001
1.0
1.0
1.0

16
0.0001
1.0
1.0
1.0
1.0
0.0001
1.0
1.0
1.0
1.0
0.0001
1.0
1.0
1.0
1.0
1.0

16
0.0001
1.0
1.0
1.0
1.0
0.0001
1.0
1.0
1.0
1.0
0.0001
1.0
1.0
1.0
1.0
1.0

4
0.0001
1.0
1.0
1.0

8
0.0001
1.0
0.0001
1.0
1.0
1.0
1.0
1.0

8
0.0001
1.0
0.0001
1.0
1.0
1.0
1.0
1.0

4
0.0001
1.0
1.0
1.0

32
1.0
0.0001
1.0
1.0
1.0
1.0
1.0
1.0
1.0
1.0
1.0
1.0
1.0
1.0
1.0
1.0
1.0
1.0
1.0
1.0
1.0
1.0
1.0
1.0
1.0
1.0
1.0
1.0
1.0
1.0
1.0
1.0

8
0.0001
1.0
0.0001
1.0
1.0
1.0
1.0
1.0

16
0.0001
1.0
1.0
1.0
1.0
0.0001
1.0
1.0
1.0
1.0
0.0001
1.0
1.0
1.0
1.0
1.0

8
0.0001
1.0
1.0
1.0
1.0
1.0
1.0
1.0

8
0.0001
1.0
0.0001
1.0
1.0
1.0
1.0
1.0

4
0.0001
1.0
1.0
1.0

16
0.0001
1.0
1.0
1.0
1.0
0.0001
1.0
1.0
1.0
1.0
0.0001
1.0
1.0
1.0
1.0
1.0

16
0.0001
1.0
1.0
1.0
1.0
0.0001
1.0
1.0
1.0
1.0
0.0001
1.0
1.0
1.0
1.0
1.0

8
0.0001
1.0
0.0001
1.0
1.0
1.0
1.0
1.0

16
0.0001
1.0
1.0
1.0
1.0
0.0001
1.0
1.0
1.0
1.0
0.0001
1.0
1.0
1.0
1.0
1.0

4
0.0001
1.0
1.0
1.0

8
0.0001
1.0
0.0001
1.0
1.0
1.0
1.0
1.0

32
1.0
1.0
1.0
1.0
1.0
1.0
1.0
1.0
0.0001
1.0
1.0
1.0
1.0
1.0
1.0
1.0
1.0
1.0
1.0
1.0
1.0
1.0
1.0
1.0
1.0
1.0
1.0
1.0
1.0
1.0
1.0
1.0

4
0.0001
1.0
1.0
1.0

8
0.0001
1.0
0.0001
1.0
1.0
1.0
1.0
1.0

16
1.0
0.0001
1.0
1.0
1.0
1.0
1.0
1.0
1.0
1.0
1.0
1.0
1.0
1.0
1.0
1.0

4
0.0001
1.0
1.0
1.0

16
0.0001
1.0
1.0
1.0
1.0
0.0001
1.0
1.0
1.0
1.0
0.0001
1.0
1.0
1.0
1.0
1.0

16
0.0001
1.0
1.0
1.0
1.0
0.0001
1.0
1.0
1.0
1.0
0.0001
1.0
1.0
1.0
1.0
1.0

64
1.0
1.0
1.0
1.0
1.0
1.0
1.0
1.0
1.0
1.0
1.0
1.0
1.0
1.0
1.0
1.0
1.0
1.0
1.0
1.0
1.0
1.0
1.0
1.0
0.0001
1.0
1.0
1.0
1.0
1.0
1.0
1.0
1.0
1.0
1.0
1.0
1.0
1.0
1.0
1.0
1.0
1.0
1.0
1.0
1.0
1.0
1.0
1.0
1.0
1.0
1.0
1.0
1.0
1.0
1.0
1.0
1.0
1.0
1.0
1.0
1.0
1.0
1.0
1.0

4
0.0001
1.0
1.0
1.0

8
0.0001
1.0
1.0
1.0
0.0001
1.0
1.0
1.0

16
0.0001
1.0
1.0
1.0
1.0
0.0001
1.0
1.0
1.0
1.0
0.0001
1.0
1.0
1.0
1.0
1.0

16
1.0
1.0
1.0
1.0
0.0001
1.0
1.0
1.0
1.0
1.0
1.0
1.0
1.0
1.0
1.0
1.0

4
0.0001
1.0
1.0
1.0

8
0.0001
1.0
0.0001
1.0
1.0
1.0
1.0
1.0

4
0.0001
1.0
1.0
1.0

16
0.0001
1.0
1.0
1.0
1.0
0.0001
1.0
1.0
1.0
1.0
0.0001
1.0
1.0
1.0
1.0
1.0

32
1.0
0.0001
1.0
1.0
1.0
1.0
1.0
1.0
1.0
1.0
1.0
1.0
1.0
1.0
1.0
1.0
1.0
1.0
1.0
1.0
1.0
1.0
1.0
1.0
1.0
1.0
1.0
1.0
1.0
1.0
1.0
1.0

4
0.0001
1.0
1.0
1.0

8
1.0
1.0
0.0001
1.0
1.0
1.0
1.0
1.0

16
0.0001
1.0
1.0
1.0
1.0
0.0001
1.0
1.0
1.0
1.0
0.0001
1.0
1.0
1.0
1.0
1.0

8
1.0
1.0
0.0001
1.0
1.0
1.0
1.0
1.0

4
0.0001
1.0
1.0
1.0

8
0.0001
1.0
0.0001
1.0
1.0
1.0
1.0
1.0

32
1.0
0.0001
1.0
1.0
1.0
1.0
1.0
1.0
1.0
1.0
1.0
1.0
1.0
1.0
1.0
1.0
1.0
1.0
1.0
1.0
1.0
1.0
1.0
1.0
1.0
1.0
1.0
1.0
1.0
1.0
1.0
1.0

64
1.0
1.0
1.0
1.0
1.0
1.0
1.0
1.0
1.0
1.0
1.0
1.0
1.0
1.0
1.0
1.0
1.0
1.0
0.0001
1.0
1.0
1.0
1.0
1.0
1.0
1.0
1.0
1.0
1.0
1.0
1.0
1.0
1.0
1.0
1.0
1.0
1.0
1.0
1.0
1.0
1.0
1.0
1.0
1.0
1.0
1.0
1.0
1.0
1.0
1.0
1.0
1.0
1.0
1.0
1.0
1.0
1.0
1.0
1.0
1.0
1.0
1.0
1.0
1.0

4
0.0001
1.0
1.0
1.0

16
0.0001
1.0
1.0
1.0
1.0
0.0001
1.0
1.0
1.0
1.0
0.0001
1.0
1.0
1.0
1.0
1.0

4
0.0001
1.0
1.0
1.0

4
0.0001
1.0
1.0
1.0

16
0.0001
1.0
1.0
1.0
1.0
0.0001
1.0
1.0
1.0
1.0
0.0001
1.0
1.0
1.0
1.0
1.0

8
1.0
0.0001
1.0
1.0
1.0
1.0
1.0
1.0

16
0.0001
1.0
1.0
1.0
1.0
0.0001
1.0
1.0
1.0
1.0
0.0001
1.0
1.0
1.0
1.0
1.0

32
1.0
0.0001
1.0
1.0
1.0
1.0
1.0
1.0
1.0
1.0
1.0
1.0
1.0
1.0
1.0
1.0
1.0
1.0
1.0
1.0
1.0
1.0
1.0
1.0
1.0
1.0
1.0
1.0
1.0
1.0
1.0
1.0

4
0.0001
1.0
1.0
1.0

16
0.0001
1.0
1.0
1.0
1.0
0.0001
1.0
1.0
1.0
1.0
0.0001
1.0
1.0
1.0
1.0
1.0

8
1.0
1.0
0.0001
1.0
1.0
1.0
1.0
1.0

32
1.0
1.0
1.0
1.0
0.0001
1.0
1.0
1.0
1.0
1.0
1.0
1.0
1.0
1.0
1.0
1.0
1.0
1.0
1.0
1.0
1.0
1.0
1.0
1.0
1.0
1.0
1.0
1.0
1.0
1.0
1.0
1.0

8
1.0
1.0
0.0001
1.0
1.0
1.0
1.0
1.0

8
0.0001
1.0
0.0001
1.0
1.0
1.0
1.0
1.0

4
0.0001
1.0
1.0
1.0

64
1.0
1.0
1.0
1.0
1.0
1.0
1.0
1.0
1.0
1.0
1.0
1.0
1.0
1.0
1.0
1.0
1.0
1.0
0.0001
1.0
1.0
1.0
1.0
1.0
1.0
1.0
1.0
1.0
1.0
1.0
1.0
1.0
1.0
1.0
1.0
1.0
1.0
1.0
1.0
1.0
1.0
1.0
1.0
1.0
1.0
1.0
1.0
1.0
1.0
1.0
1.0
1.0
1.0
1.0
1.0
1.0
1.0
1.0
1.0
1.0
1.0
1.0
1.0
1.0

4
0.0001
1.0
1.0
1.0

16
0.0001
1.0
1.0
1.0
1.0
0.0001
1.0
1.0
1.0
1.0
0.0001
1.0
1.0
1.0
1.0
1.0

16
0.0001
1.0
1.0
1.0
1.0
1.0
1.0
1.0
1.0
1.0
1.0
1.0
1.0
1.0
1.0
1.0

8
1.0
1.0
0.0001
1.0
1.0
1.0
1.0
1.0

8
0.0001
1.0
0.0001
1.0
1.0
1.0
1.0
1.0

4
0.0001
1.0
1.0
1.0

4
0.0001
1.0
1.0
1.0

8
0.0001
1.0
0.0001
1.0
1.0
1.0
1.0
1.0

8
0.0001
1.0
0.0001
1.0
1.0
1.0
1.0
1.0

16
0.0001
1.0
1.0
1.0
1.0
0.0001
1.0
1.0
1.0
1.0
0.0001
1.0
1.0
1.0
1.0
1.0

4
0.0001
1.0
1.0
1.0

16
0.0001
1.0
1.0
1.0
1.0
0.0001
1.0
1.0
1.0
1.0
0.0001
1.0
1.0
1.0
1.0
1.0

4
0.0001
1.0
1.0
1.0

32
1.0
1.0
1.0
1.0
0.0001
1.0
1.0
1.0
1.0
1.0
1.0
1.0
1.0
1.0
1.0
1.0
1.0
1.0
1.0
1.0
1.0
1.0
1.0
1.0
1.0
1.0
1.0
1.0
1.0
1.0
1.0
1.0

8
0.0001
1.0
1.0
1.0
0.0001
1.0
1.0
1.0

16
1.0
1.0
1.0
1.0
0.0001
1.0
1.0
1.0
1.0
1.0
1.0
1.0
1.0
1.0
1.0
1.0

32
1.0
1.0
1.0
1.0
0.0001
1.0
1.0
1.0
1.0
1.0
1.0
1.0
1.0
1.0
1.0
1.0
1.0
1.0
1.0
1.0
1.0
1.0
1.0
1.0
1.0
1.0
1.0
1.0
1.0
1.0
1.0
1.0

8
0.0001
1.0
0.0001
1.0
1.0
1.0
1.0
1.0

4
0.0001
1.0
1.0
1.0

4
0.0001
1.0
1.0
1.0

16
0.0001
1.0
1.0
1.0
1.0
0.0001
1.0
1.0
1.0
1.0
0.0001
1.0
1.0
1.0
1.0
1.0

64
1.0
1.0
1.0
1.0
1.0
1.0
1.0
1.0
1.0
1.0
1.0
1.0
1.0
1.0
1.0
1.0
1.0
1.0
0.0001
1.0
1.0
1.0
1.0
1.0
1.0
1.0
1.0
1.0
1.0
1.0
1.0
1.0
1.0
1.0
1.0
1.0
1.0
1.0
1.0
1.0
1.0
1.0
1.0
1.0
1.0
1.0
1.0
1.0
1.0
1.0
1.0
1.0
1.0
1.0
1.0
1.0
1.0
1.0
1.0
1.0
1.0
1.0
1.0
1.0

8
0.0001
1.0
0.0001
1.0
1.0
1.0
1.0
1.0

16
0.0001
1.0
1.0
1.0
1.0
0.0001
1.0
1.0
1.0
1.0
0.0001
1.0
1.0
1.0
1.0
1.0

4
1.0
1.0
1.0
0.999544371996

4
1.0
1.0
1.0
0.999544371996

4
1.0
1.0
1.0
0.999544371996

4
1.0
1.0
1.0
0.999544371996

2
1.0
0.999088951588

2
1.0
0.999544371996

2
1.0
0.999544371996

4
1.0
1.0
1.0
0.999544371996

4
1.0
1.0
1.0
0.999544371996

2
1.0
0.999088951588

2
1.0
0.999088951588

2
1.0
0.999088951588

2
1.0
0.999088951588

2
1.0
0.999088951588

2
1.0
0.999088951588

2
1.0
0.999088951588

4
1.0
1.0
1.0
0.999544371996

4
1.0
1.0
1.0
0.999544371996

2
1.0
0.999088951588

4
1.0
1.0
1.0
0.999544371996

2
1.0
0.999088951588

2
1.0
0.999088951588

2
1.0
0.999088951588

2
1.0
0.999088951588

2
1.0
0.999088951588

2
1.0
0.999088951588

2
1.0
0.999088951588

2
1.0
0.999088951588

2
1.0
0.999544371996

2
1.0
0.999544371996

2
1.0
0.999088951588

2
1.0
0.999088951588

2
1.0
0.999088951588

2
1.0
0.999088951588

4
1.0
1.0
1.0
0.999544371996

2
1.0
0.999088951588

2
1.0
0.999088951588

2
1.0
0.999088951588

2
1.0
0.999088951588

2
1.0
0.999088951588

2
1.0
0.999088951588

2
1.0
0.999088951588

2
1.0
0.999088951588

2
1.0
0.999088951588

2
1.0
0.999088951588

2
1.0
0.999088951588

2
1.0
0.999088951588

2
1.0
0.999088951588

4
1.0
1.0
1.0
0.999544371996

4
1.0
1.0
1.0
0.999544371996

4
1.0
1.0
1.0
0.999544371996

4
1.0
1.0
1.0
0.999544371996

4
1.0
1.0
1.0
0.999544371996

2
1.0
0.999088951588

4
1.0
1.0
1.0
0.999544371996

4
1.0
1.0
1.0
0.999544371996

4
1.0
1.0
1.0
0.999544371996

2
1.0
0.999088951588

2
1.0
0.999088951588

2
1.0
0.999088951588

2
1.0
0.999088951588

2
1.0
0.633983826997

2
1.0
0.633983826997

2
1.0
0.633983826997

4
1.0
1.0
1.0
0.999544371996

4
1.0
1.0
1.0
0.999544371996

2
1.0
0.999088951588

4
1.0
1.0
1.0
0.999544371996

4
1.0
1.0
1.0
0.999544371996

4
1.0
1.0
1.0
0.999544371996

4
1.0
1.0
1.0
0.999544371996

2
1.0
0.999088951588

2
1.0
0.999088951588

4
1.0
1.0
1.0
0.999544371996

4
1.0
1.0
1.0
0.999544371996

4
1.0
1.0
1.0
0.999544371996

4
1.0
1.0
1.0
0.999544371996

2
1.0
0.999088951588

2
1.0
0.999088951588

2
1.0
0.999088951588

4
1.0
1.0
1.0
0.999544371996

4
1.0
1.0
1.0
0.999544371996

2
1.0
0.999088951588

2
1.0
0.999088951588

2
1.0
0.999088951588

4
1.0
1.0
1.0
0.999544371996

2
1.0
0.999088951588

2
1.0
0.999088951588

2
1.0
0.999088951588

2
1.0
0.999088951588

2
1.0
0.999088951588

2
1.0
0.999088951588

2
1.0
0.999088951588

2
1.0
0.999088951588

4
1.0
1.0
1.0
0.633983826997

2
1.0
0.633983826997

4
1.0
1.0
1.0
0.633983826997

2
1.0
0.633983826997

4
1.0
1.0
1.0
0.997723935001

2
1.0
0.997723935001

4
1.0
1.0
1.0
0.999544371996

4
1.0
1.0
1.0
0.999544371996

4
1.0
1.0
1.0
0.999544371996

2
1.0
0.633983826997

2
1.0
0.633983826997

2
1.0
0.633983826997

4
1.0
1.0
1.0
0.999544371996

4
1.0
1.0
1.0
0.999544371996

4
1.0
1.0
1.0
0.999544371996

4
1.0
1.0
1.0
0.999544371996

2
1.0
0.633983826997

2
1.0
0.633983826997

4
1.0
1.0
1.0
0.999544371996

4
1.0
1.0
1.0
0.999544371996

4
1.0
1.0
1.0
0.999544371996

2
1.0
0.633983826997

2
1.0
0.633983826997

4
1.0
1.0
1.0
0.999544371996

4
1.0
1.0
1.0
0.633983826997

4
1.0
1.0
1.0
0.633983826997

4
1.0
1.0
1.0
0.633983826997

2
1.0
0.633983826997

2
1.0
0.633983826997

2
1.0
0.633983826997

2
1.0
0.997723935001

2
1.0
0.999088951588

2
1.0
0.997723935001

2
1.0
0.999088951588

2
1.0
0.997723935001

2
1.0
0.999088951588

4
1.0
1.0
1.0
0.999544371996

4
1.0
1.0
1.0
0.999544371996

4
1.0
1.0
1.0
0.999544371996

4
1.0
1.0
1.0
0.997723935001

4
1.0
1.0
1.0
0.999544371996

4
1.0
1.0
1.0
0.999544371996

4
1.0
1.0
1.0
0.999544371996

4
1.0
1.0
1.0
0.999544371996

4
1.0
1.0
1.0
0.999544371996

4
1.0
1.0
1.0
0.999544371996

2
1.0
0.999088951588

2
1.0
0.999088951588

2
1.0
0.999088951588

